(declare-fun temp944_2 () (_ BitVec 64))
(declare-fun temp944_1 () (_ BitVec 64))
(declare-fun temp944_4 () (_ BitVec 64))
(declare-fun temp944_3 () (_ BitVec 64))
(declare-fun temp944_6 () (_ BitVec 64))
(declare-fun temp944_5 () (_ BitVec 64))
(declare-fun temp944_8 () (_ BitVec 64))
(declare-fun temp944_7 () (_ BitVec 64))
(declare-fun temp944_10 () (_ BitVec 64))
(declare-fun temp944_9 () (_ BitVec 64))
(declare-fun temp944_12 () (_ BitVec 64))
(declare-fun temp944_11 () (_ BitVec 64))
(declare-fun temp944_14 () (_ BitVec 64))
(declare-fun temp944_13 () (_ BitVec 64))
(declare-fun temp944_16 () (_ BitVec 64))
(declare-fun temp944_15 () (_ BitVec 64))
(declare-fun temp944_18 () (_ BitVec 64))
(declare-fun temp944_17 () (_ BitVec 64))
(declare-fun temp944_19 () (_ BitVec 64))
(declare-fun temp944_20 () (_ BitVec 64))
(declare-fun temp944_21 () (_ BitVec 64))
(declare-fun temp944_22 () (_ BitVec 64))
(declare-fun temp944_23 () (_ BitVec 64))
(declare-fun var66553 () (_ BitVec 64))
(declare-fun temp944_24 () (_ BitVec 64))
(declare-fun var66557 () (_ BitVec 64))
(declare-fun temp944_25 () (_ BitVec 64))
(declare-fun temp944_26 () (_ BitVec 64))
(declare-fun var66617 () (_ BitVec 64))
(declare-fun temp944_27 () (_ BitVec 64))
(declare-fun var66620 () (_ BitVec 64))
(declare-fun temp944_28 () (_ BitVec 64))
(declare-fun temp944_29 () (_ BitVec 64))
(declare-fun temp944_30 () (_ BitVec 64))
(declare-fun temp944_31 () (_ BitVec 64))
(declare-fun temp944_32 () (_ BitVec 64))
(declare-fun temp944_33 () (_ BitVec 64))
(declare-fun temp944_34 () (_ BitVec 64))
(assert (= temp944_2 #x0000000000000000))
(assert (= temp944_1 temp944_2))
(assert (= temp944_4 #x0000000000000004))
(assert (= temp944_3 temp944_4))
(assert (= temp944_6 #x0000000000000001))
(assert (= temp944_5 temp944_6))
(assert (= temp944_8 #x0000000000000001))
(assert (= temp944_7 temp944_8))
(assert (= temp944_10 #x0000000000000000))
(assert (= temp944_9 temp944_10))
(assert (= temp944_12 #x0000000000000001))
(assert (= temp944_11 temp944_12))
(assert (= temp944_14 #x0000000000000000))
(assert (= temp944_13 temp944_14))
(assert (= temp944_16 #x0000000000000000))
(assert (= temp944_15 temp944_16))
(assert (= temp944_18 #x0000000000000000))
(assert (= temp944_17 temp944_18))
(assert (= temp944_19 #x0000000000000001))
(assert (= temp944_20 #x0000000000000002))
(assert (= temp944_21 #x0000000000000004))
(assert (= temp944_22 #x0000000000000008))
(assert (or false
    (= temp944_7 temp944_19)
    (= temp944_7 temp944_20)
    (= temp944_7 temp944_21)
    (= temp944_7 temp944_22)))
(assert (= temp944_23 #x0000000000000000))
(assert (= var66553 temp944_23))
(assert (= temp944_24 #x0000000000000000))
(assert (= var66557 (ite (= var66553 temp944_24) #x0000000000000001 #x0000000000000000)))
(assert (= temp944_25 #x0000000000000001))
(assert (= var66557 temp944_25))
(assert (= temp944_26 #x0000000000000000))
(assert (= var66617 temp944_26))
(assert (= temp944_27 #x0000000000000000))
(assert (= var66620 (ite (= var66617 temp944_27) #x0000000000000001 #x0000000000000000)))
(assert (= temp944_28 #x0000000000000001))
(assert (= var66620 temp944_28))
(assert (= temp944_29 #x0000000000000004))
(assert (= temp944_30 #x0000000000000011))
(assert (or false (= temp944_3 temp944_29) (= temp944_3 temp944_30)))
(assert (= temp944_31 #x0000000000000000))
(assert (= temp944_32 #x0000000000000001))
(assert (= temp944_33 #x0000000000000003))
(assert (= temp944_34 #x0000000000000004))
(assert (or false
    (= temp944_1 temp944_31)
    (= temp944_1 temp944_32)
    (= temp944_1 temp944_33)
    (= temp944_1 temp944_34)))
(model-add temp944_2 () (_ BitVec 64) #x0000000000000000)
(model-add temp944_1 () (_ BitVec 64) #x0000000000000000)
(model-add temp944_4 () (_ BitVec 64) #x0000000000000004)
(model-add temp944_3 () (_ BitVec 64) #x0000000000000004)
(model-add temp944_6 () (_ BitVec 64) #x0000000000000001)
(model-add temp944_5 () (_ BitVec 64) #x0000000000000001)
(model-add temp944_8 () (_ BitVec 64) #x0000000000000001)
(model-add temp944_7 () (_ BitVec 64) #x0000000000000001)
(model-add temp944_10 () (_ BitVec 64) #x0000000000000000)
(model-add temp944_9 () (_ BitVec 64) #x0000000000000000)
(model-add temp944_12 () (_ BitVec 64) #x0000000000000001)
(model-add temp944_11 () (_ BitVec 64) #x0000000000000001)
(model-add temp944_14 () (_ BitVec 64) #x0000000000000000)
(model-add temp944_13 () (_ BitVec 64) #x0000000000000000)
(model-add temp944_16 () (_ BitVec 64) #x0000000000000000)
(model-add temp944_15 () (_ BitVec 64) #x0000000000000000)
(model-add temp944_18 () (_ BitVec 64) #x0000000000000000)
(model-add temp944_17 () (_ BitVec 64) #x0000000000000000)
(model-add temp944_19 () (_ BitVec 64) #x0000000000000001)
(model-add temp944_20 () (_ BitVec 64) #x0000000000000002)
(model-add temp944_21 () (_ BitVec 64) #x0000000000000004)
(model-add temp944_22 () (_ BitVec 64) #x0000000000000008)








